p edges 112 142
e 1 7
e 2 10
e 3 11
e 3 12
e 4 8
e 4 9
e 5 6
e 5 13
e 6 13
e 7 10
e 8 12
e 9 13
e 14 20
e 15 23
e 16 24
e 16 25
e 17 21
e 17 22
e 18 19
e 18 26
e 19 26
e 20 23
e 21 25
e 22 26
e 27 28
e 27 29
e 28 29
e 30 31
e 30 32
e 31 32
e 33 34
e 35 36
e 35 38
e 35 39
e 35 40
e 35 41
e 36 38
e 36 39
e 36 40
e 36 41
e 37 38
e 37 39
e 38 39
e 38 40
e 38 41
e 42 43
e 44 45
e 44 47
e 44 48
e 44 49
e 44 50
e 45 47
e 45 48
e 45 49
e 45 50
e 46 47
e 46 48
e 47 48
e 47 49
e 47 50
e 51 52
e 53 54
e 55 56
e 57 58
e 57 59
e 57 60
e 57 61
e 57 62
e 57 63
e 58 59
e 58 60
e 58 61
e 58 62
e 58 63
e 60 62
e 61 63
e 64 65
e 66 67
e 66 68
e 66 69
e 66 70
e 66 71
e 66 72
e 67 68
e 67 69
e 67 70
e 67 71
e 67 72
e 69 71
e 70 72
e 73 74
e 73 75
e 74 75
e 76 77
e 76 78
e 77 78
e 79 81
e 79 82
e 79 83
e 80 81
e 80 82
e 81 82
e 81 83
e 84 86
e 84 87
e 84 88
e 85 86
e 85 87
e 86 87
e 86 88
e 89 96
e 89 99
e 90 95
e 90 100
e 91 94
e 91 97
e 91 98
e 92 97
e 92 98
e 93 97
e 93 98
e 94 97
e 94 98
e 95 100
e 96 99
e 97 98
e 101 108
e 101 111
e 102 107
e 102 112
e 103 106
e 103 109
e 103 110
e 104 109
e 104 110
e 105 109
e 105 110
e 106 109
e 106 110
e 107 112
e 108 111
e 109 110
w 1 944
w 2 944
w 3 944
w 4 944
w 5 861
w 6 83
w 7 54
w 8 55
w 9 55
w 10 55
w 11 55
w 12 55
w 13 55
w 14 944
w 15 944
w 16 944
w 17 944
w 18 861
w 19 83
w 20 54
w 21 55
w 22 55
w 23 55
w 24 55
w 25 55
w 26 55
w 27 125
w 28 187
w 29 500
w 30 125
w 31 187
w 32 500
w 33 887
w 34 112
w 35 275
w 36 112
w 37 387
w 38 500
w 39 112
w 40 387
w 41 224
w 42 887
w 43 112
w 44 275
w 45 112
w 46 387
w 47 500
w 48 112
w 49 387
w 50 224
w 51 124
w 52 875
w 53 124
w 54 875
w 55 124
w 56 875
w 57 487
w 58 250
w 59 500
w 60 225
w 61 262
w 62 12
w 63 249
w 64 124
w 65 875
w 66 487
w 67 250
w 68 500
w 69 225
w 70 262
w 71 12
w 72 249
w 73 500
w 74 500
w 75 500
w 76 500
w 77 500
w 78 500
w 79 250
w 80 250
w 81 500
w 82 250
w 83 250
w 84 250
w 85 250
w 86 500
w 87 250
w 88 250
w 89 691
w 90 691
w 91 274
w 92 225
w 93 500
w 94 274
w 95 137
w 96 137
w 97 225
w 98 500
w 99 171
w 100 171
w 101 691
w 102 691
w 103 274
w 104 225
w 105 500
w 106 274
w 107 137
w 108 137
w 109 225
w 110 500
w 111 171
w 112 171
n 1 x7897
n 2 x7899
n 3 x7901
n 4 x7903
n 5 x7905
n 6 x7989
n 7 x8640
n 8 x8643
n 9 x8646
n 10 x8709
n 11 x8711
n 12 x8714
n 13 x8715
n 14 x10809
n 15 x10811
n 16 x10813
n 17 x10815
n 18 x10817
n 19 x10901
n 20 x11552
n 21 x11555
n 22 x11558
n 23 x11621
n 24 x11623
n 25 x11626
n 26 x11627
n 27 x12469
n 28 x12483
n 29 x12693
n 30 x15381
n 31 x15395
n 32 x15605
n 33 x17603
n 34 x17799
n 35 x17803
n 36 x17817
n 37 x17818
n 38 x18321
n 39 x18587
n 40 x18588
n 41 x18602
n 42 x20515
n 43 x20711
n 44 x20715
n 45 x20729
n 46 x20730
n 47 x21233
n 48 x21499
n 49 x21500
n 50 x21514
n 51 x23341
n 52 x23439
n 53 x26253
n 54 x26351
n 55 x29157
n 56 x29283
n 57 x29873
n 58 x29887
n 59 x29916
n 60 x29930
n 61 x30657
n 62 x30658
n 63 x30756
n 64 x32069
n 65 x32195
n 66 x32785
n 67 x32799
n 68 x32828
n 69 x32842
n 70 x33569
n 71 x33570
n 72 x33668
n 73 x36032
n 74 x36101
n 75 x36115
n 76 x38944
n 77 x39013
n 78 x39027
n 79 x41715
n 80 x41716
n 81 x41799
n 82 x42499
n 83 x42500
n 84 x44627
n 85 x44628
n 86 x44711
n 87 x45411
n 88 x45412
n 89 x50107
n 90 x50108
n 91 x50423
n 92 x50424
n 93 x50438
n 94 x50774
n 95 x50793
n 96 x50794
n 97 x50801
n 98 x50815
n 99 x50835
n 100 x50836
n 101 x53019
n 102 x53020
n 103 x53335
n 104 x53336
n 105 x53350
n 106 x53686
n 107 x53705
n 108 x53706
n 109 x53713
n 110 x53727
n 111 x53747
n 112 x53748
o 1 7897
o 2 7899
o 3 7901
o 4 7903
o 5 7905
o 6 7989
o 7 8640
o 8 8643
o 9 8646
o 10 8709
o 11 8711
o 12 8714
o 13 8715
o 14 10809
o 15 10811
o 16 10813
o 17 10815
o 18 10817
o 19 10901
o 20 11552
o 21 11555
o 22 11558
o 23 11621
o 24 11623
o 25 11626
o 26 11627
o 27 12469
o 28 12483
o 29 12693
o 30 15381
o 31 15395
o 32 15605
o 33 17603
o 34 17799
o 35 17803
o 36 17817
o 37 17818
o 38 18321
o 39 18587
o 40 18588
o 41 18602
o 42 20515
o 43 20711
o 44 20715
o 45 20729
o 46 20730
o 47 21233
o 48 21499
o 49 21500
o 50 21514
o 51 23341
o 52 23439
o 53 26253
o 54 26351
o 55 29157
o 56 29283
o 57 29873
o 58 29887
o 59 29916
o 60 29930
o 61 30657
o 62 30658
o 63 30756
o 64 32069
o 65 32195
o 66 32785
o 67 32799
o 68 32828
o 69 32842
o 70 33569
o 71 33570
o 72 33668
o 73 36032
o 74 36101
o 75 36115
o 76 38944
o 77 39013
o 78 39027
o 79 41715
o 80 41716
o 81 41799
o 82 42499
o 83 42500
o 84 44627
o 85 44628
o 86 44711
o 87 45411
o 88 45412
o 89 50107
o 90 50108
o 91 50423
o 92 50424
o 93 50438
o 94 50774
o 95 50793
o 96 50794
o 97 50801
o 98 50815
o 99 50835
o 100 50836
o 101 53019
o 102 53020
o 103 53335
o 104 53336
o 105 53350
o 106 53686
o 107 53705
o 108 53706
o 109 53713
o 110 53727
o 111 53747
o 112 53748
